WARNING: for repeatability, setting FPU to use double precision
============================[ Problem Statistics ]=============================
|                                                                             |
|  Number of variables:           100                                         |
|  Number of clauses:             449                                         |
|  Parse time:                   0.00 s                                       |
|  Eliminated clauses:           0.00 Mb                                      |
|  Simplification time:          0.00 s                                       |
|                                                                             |
============================[ Search Statistics ]==============================
| Conflicts |          ORIGINAL         |          LEARNT          | Progress |
|           |    Vars  Clauses Literals |    Limit  Clauses Lit/Cl |          |
===============================================================================
|       100 |      98      446     1350 |      163      100      8 |  0.010 % |
===============================================================================
restarts              : 3
conflicts             : 220            (88674 /sec)
decisions             : 303            (0.00 % random) (122128 /sec)
propagations          : 5397           (2175333 /sec)
conflict literals     : 1592           (15.32 % deleted)
Memory used           : 13.00 MB
CPU time              : 0.002481 s

SATISFIABLE
